p cnf 56 616
-15 -16 0
-15 -17 0
-15 -18 0
-15 -19 0
-15 -20 0
-15 -21 0
-15 -22 0
-15 -23 0
-15 -24 0
-15 -25 0
-15 -26 0
-15 -27 0
-15 -28 0
-16 -17 0
-16 -18 0
-16 -19 0
-16 -20 0
-16 -21 0
-16 -22 0
-16 -23 0
-16 -24 0
-16 -25 0
-16 -26 0
-16 -27 0
-16 -28 0
-17 -18 0
-17 -19 0
-17 -20 0
-17 -21 0
-17 -22 0
-17 -23 0
-17 -24 0
-17 -25 0
-17 -26 0
-17 -27 0
-17 -28 0
-18 -19 0
-18 -20 0
-18 -21 0
-18 -22 0
-18 -23 0
-18 -24 0
-18 -25 0
-18 -26 0
-18 -27 0
-18 -28 0
-19 -20 0
-19 -21 0
-19 -22 0
-19 -23 0
-19 -24 0
-19 -25 0
-19 -26 0
-19 -27 0
-19 -28 0
-20 -21 0
-20 -22 0
-20 -23 0
-20 -24 0
-20 -25 0
-20 -26 0
-20 -27 0
-20 -28 0
-21 -22 0
-21 -23 0
-21 -24 0
-21 -25 0
-21 -26 0
-21 -27 0
-21 -28 0
-22 -23 0
-22 -24 0
-22 -25 0
-22 -26 0
-22 -27 0
-22 -28 0
-23 -24 0
-23 -25 0
-23 -26 0
-23 -27 0
-23 -28 0
-24 -25 0
-24 -26 0
-24 -27 0
-24 -28 0
-25 -26 0
-25 -27 0
-25 -28 0
-26 -27 0
-26 -28 0
-27 -28 0
-29 -30 0
-29 -31 0
-29 -32 0
-29 -33 0
-29 -34 0
-29 -35 0
-29 -36 0
-29 -37 0
-29 -38 0
-29 -39 0
-29 -40 0
-29 -41 0
-29 -42 0
-30 -31 0
-30 -32 0
-30 -33 0
-30 -34 0
-30 -35 0
-30 -36 0
-30 -37 0
-30 -38 0
-30 -39 0
-30 -40 0
-30 -41 0
-30 -42 0
-31 -32 0
-31 -33 0
-31 -34 0
-31 -35 0
-31 -36 0
-31 -37 0
-31 -38 0
-31 -39 0
-31 -40 0
-31 -41 0
-31 -42 0
-32 -33 0
-32 -34 0
-32 -35 0
-32 -36 0
-32 -37 0
-32 -38 0
-32 -39 0
-32 -40 0
-32 -41 0
-32 -42 0
-33 -34 0
-33 -35 0
-33 -36 0
-33 -37 0
-33 -38 0
-33 -39 0
-33 -40 0
-33 -41 0
-33 -42 0
-34 -35 0
-34 -36 0
-34 -37 0
-34 -38 0
-34 -39 0
-34 -40 0
-34 -41 0
-34 -42 0
-35 -36 0
-35 -37 0
-35 -38 0
-35 -39 0
-35 -40 0
-35 -41 0
-35 -42 0
-36 -37 0
-36 -38 0
-36 -39 0
-36 -40 0
-36 -41 0
-36 -42 0
-37 -38 0
-37 -39 0
-37 -40 0
-37 -41 0
-37 -42 0
-38 -39 0
-38 -40 0
-38 -41 0
-38 -42 0
-39 -40 0
-39 -41 0
-39 -42 0
-40 -41 0
-40 -42 0
-41 -42 0
-43 -44 0
-43 -45 0
-43 -46 0
-43 -47 0
-43 -48 0
-43 -49 0
-43 -50 0
-43 -51 0
-43 -52 0
-43 -53 0
-43 -54 0
-43 -55 0
-43 -56 0
-44 -45 0
-44 -46 0
-44 -47 0
-44 -48 0
-44 -49 0
-44 -50 0
-44 -51 0
-44 -52 0
-44 -53 0
-44 -54 0
-44 -55 0
-44 -56 0
-45 -46 0
-45 -47 0
-45 -48 0
-45 -49 0
-45 -50 0
-45 -51 0
-45 -52 0
-45 -53 0
-45 -54 0
-45 -55 0
-45 -56 0
-46 -47 0
-46 -48 0
-46 -49 0
-46 -50 0
-46 -51 0
-46 -52 0
-46 -53 0
-46 -54 0
-46 -55 0
-46 -56 0
-47 -48 0
-47 -49 0
-47 -50 0
-47 -51 0
-47 -52 0
-47 -53 0
-47 -54 0
-47 -55 0
-47 -56 0
-48 -49 0
-48 -50 0
-48 -51 0
-48 -52 0
-48 -53 0
-48 -54 0
-48 -55 0
-48 -56 0
-49 -50 0
-49 -51 0
-49 -52 0
-49 -53 0
-49 -54 0
-49 -55 0
-49 -56 0
-50 -51 0
-50 -52 0
-50 -53 0
-50 -54 0
-50 -55 0
-50 -56 0
-51 -52 0
-51 -53 0
-51 -54 0
-51 -55 0
-51 -56 0
-52 -53 0
-52 -54 0
-52 -55 0
-52 -56 0
-53 -54 0
-53 -55 0
-53 -56 0
-54 -55 0
-54 -56 0
-55 -56 0
-16 -29 0
-17 -29 0
-18 -29 0
-19 -29 0
-20 -29 0
-21 -29 0
-22 -29 0
-23 -29 0
-24 -29 0
-25 -29 0
-26 -29 0
-27 -29 0
-28 -29 0
-17 -30 0
-18 -30 0
-19 -30 0
-20 -30 0
-21 -30 0
-22 -30 0
-23 -30 0
-24 -30 0
-25 -30 0
-26 -30 0
-27 -30 0
-28 -30 0
-18 -31 0
-19 -31 0
-20 -31 0
-21 -31 0
-22 -31 0
-23 -31 0
-24 -31 0
-25 -31 0
-26 -31 0
-27 -31 0
-28 -31 0
-19 -32 0
-20 -32 0
-21 -32 0
-22 -32 0
-23 -32 0
-24 -32 0
-25 -32 0
-26 -32 0
-27 -32 0
-28 -32 0
-20 -33 0
-21 -33 0
-22 -33 0
-23 -33 0
-24 -33 0
-25 -33 0
-26 -33 0
-27 -33 0
-28 -33 0
-21 -34 0
-22 -34 0
-23 -34 0
-24 -34 0
-25 -34 0
-26 -34 0
-27 -34 0
-28 -34 0
-22 -35 0
-23 -35 0
-24 -35 0
-25 -35 0
-26 -35 0
-27 -35 0
-28 -35 0
-23 -36 0
-24 -36 0
-25 -36 0
-26 -36 0
-27 -36 0
-28 -36 0
-24 -37 0
-25 -37 0
-26 -37 0
-27 -37 0
-28 -37 0
-25 -38 0
-26 -38 0
-27 -38 0
-28 -38 0
-26 -39 0
-27 -39 0
-28 -39 0
-27 -40 0
-28 -40 0
-28 -41 0
-16 -43 0
-17 -43 0
-18 -43 0
-19 -43 0
-20 -43 0
-21 -43 0
-22 -43 0
-23 -43 0
-24 -43 0
-25 -43 0
-26 -43 0
-27 -43 0
-28 -43 0
-17 -44 0
-18 -44 0
-19 -44 0
-20 -44 0
-21 -44 0
-22 -44 0
-23 -44 0
-24 -44 0
-25 -44 0
-26 -44 0
-27 -44 0
-28 -44 0
-18 -45 0
-19 -45 0
-20 -45 0
-21 -45 0
-22 -45 0
-23 -45 0
-24 -45 0
-25 -45 0
-26 -45 0
-27 -45 0
-28 -45 0
-19 -46 0
-20 -46 0
-21 -46 0
-22 -46 0
-23 -46 0
-24 -46 0
-25 -46 0
-26 -46 0
-27 -46 0
-28 -46 0
-20 -47 0
-21 -47 0
-22 -47 0
-23 -47 0
-24 -47 0
-25 -47 0
-26 -47 0
-27 -47 0
-28 -47 0
-21 -48 0
-22 -48 0
-23 -48 0
-24 -48 0
-25 -48 0
-26 -48 0
-27 -48 0
-28 -48 0
-22 -49 0
-23 -49 0
-24 -49 0
-25 -49 0
-26 -49 0
-27 -49 0
-28 -49 0
-23 -50 0
-24 -50 0
-25 -50 0
-26 -50 0
-27 -50 0
-28 -50 0
-24 -51 0
-25 -51 0
-26 -51 0
-27 -51 0
-28 -51 0
-25 -52 0
-26 -52 0
-27 -52 0
-28 -52 0
-26 -53 0
-27 -53 0
-28 -53 0
-27 -54 0
-28 -54 0
-28 -55 0
-30 -43 0
-31 -43 0
-32 -43 0
-33 -43 0
-34 -43 0
-35 -43 0
-36 -43 0
-37 -43 0
-38 -43 0
-39 -43 0
-40 -43 0
-41 -43 0
-42 -43 0
-31 -44 0
-32 -44 0
-33 -44 0
-34 -44 0
-35 -44 0
-36 -44 0
-37 -44 0
-38 -44 0
-39 -44 0
-40 -44 0
-41 -44 0
-42 -44 0
-32 -45 0
-33 -45 0
-34 -45 0
-35 -45 0
-36 -45 0
-37 -45 0
-38 -45 0
-39 -45 0
-40 -45 0
-41 -45 0
-42 -45 0
-33 -46 0
-34 -46 0
-35 -46 0
-36 -46 0
-37 -46 0
-38 -46 0
-39 -46 0
-40 -46 0
-41 -46 0
-42 -46 0
-34 -47 0
-35 -47 0
-36 -47 0
-37 -47 0
-38 -47 0
-39 -47 0
-40 -47 0
-41 -47 0
-42 -47 0
-35 -48 0
-36 -48 0
-37 -48 0
-38 -48 0
-39 -48 0
-40 -48 0
-41 -48 0
-42 -48 0
-36 -49 0
-37 -49 0
-38 -49 0
-39 -49 0
-40 -49 0
-41 -49 0
-42 -49 0
-37 -50 0
-38 -50 0
-39 -50 0
-40 -50 0
-41 -50 0
-42 -50 0
-38 -51 0
-39 -51 0
-40 -51 0
-41 -51 0
-42 -51 0
-39 -52 0
-40 -52 0
-41 -52 0
-42 -52 0
-40 -53 0
-41 -53 0
-42 -53 0
-41 -54 0
-42 -54 0
-42 -55 0
-15 1 0
-16 2 0
-17 3 0
-18 4 0
-19 5 0
-20 6 0
-21 7 0
-22 8 0
-23 9 0
-24 10 0
-25 11 0
-26 12 0
-27 13 0
-28 14 0
-29 1 0
-30 2 0
-31 3 0
-32 4 0
-33 5 0
-34 6 0
-35 7 0
-36 8 0
-37 9 0
-38 10 0
-39 11 0
-40 12 0
-41 13 0
-42 14 0
-43 1 0
-44 2 0
-45 3 0
-46 4 0
-47 5 0
-48 6 0
-49 7 0
-50 8 0
-51 9 0
-52 10 0
-53 11 0
-54 12 0
-55 13 0
-56 14 0
-1 15 29 43 0
-2 16 30 44 0
-3 17 31 45 0
-4 18 32 46 0
-5 19 33 47 0
-6 20 34 48 0
-7 21 35 49 0
-8 22 36 50 0
-9 23 37 51 0
-10 24 38 52 0
-11 25 39 53 0
-12 26 40 54 0
-13 27 41 55 0
-14 28 42 56 0
1 2 6 11 12 0
1 3 4 5 6 7 8 9 10 12 13 14 0
1 3 6 8 12 0
1 3 7 11 12 0
1 5 8 11 12 0
2 4 7 10 12 0
2 6 10 0
3 4 7 10 12 14 0
3 5 6 8 9 11 0
4 5 7 10 12 0
4 5 8 9 11 12 13 0
5 9 11 12 0
5 12 13 0
7 12 14 0
